(set-info :Origin "This instance was generated by: BanditFuzz-- an RL fuzzer for SMT solvers" )
(set-info :Author "Joe Scott, Fed Mora, Vijay Ganesh" )
(set-info :Contact "Joe Scott, joseph.scott@uwaterloo.ca")
; solvers/z3.sh
; 	time => 0.05251955986022949
; 	answer => err
; solvers/cvc4.sh
; 	time => 0.05346560478210449
; 	answer => sat
(set-logic QF_NIRA)
(declare-const bool_0 Bool)
(declare-const bool_1 Bool)
(declare-const bool_2 Bool)
(declare-const bool_3 Bool)
(declare-const bool_4 Bool)
(declare-const int_0 Int)
(declare-const int_1 Int)
(declare-const int_2 Int)
(declare-const int_3 Int)
(declare-const int_4 Int)
(declare-const real_0 Real)
(declare-const real_1 Real)
(declare-const real_2 Real)
(declare-const real_3 Real)
(declare-const real_4 Real)
(assert (<= (- (* 780662440.8293083 225911135.14776254)) (* (/ (- 147430057.67617428) 257919335.17299747) (+ real_2 real_0))))
(assert (<= (* (- 837885725.0553546) (- 110170905.06724763 53847230.01593363)) (+ (+ real_3 real_4) (- real_1))))
(assert (<= (+ (/ real_2 217405069.00354695) (- 559331077.6778307 real_3)) (- (+ 236505636.10424328 real_2) (+ real_0 real_1))))
(assert (<= (/ (- (- 514651909)) (mod 41595482 (- 674448086))) (* (mod int_2 int_1) (- 443845969 int_1))))
(assert (> (+ (- (- 953788935.1020994) (- 462713099.9478866)) (* real_4 real_1)) (/ (- real_0) (/ real_0 114680663.90448213))))
(check-sat)
(exit)
